sat
(:added-eqs                   7505
 :arith-bound-propagations-lp 8078
 :arith-conflicts             168
 :arith-fixed-eqs             3063
 :arith-lower                 50284
 :arith-make-feasible         14460
 :arith-max-columns           969
 :arith-max-rows              441
 :arith-offset-eqs            4494
 :arith-upper                 33804
 :binary-propagations         65942
 :conflicts                   313
 :decisions                   12637
 :del-clause                  261
 :final-checks                1
 :max-memory                  32.71
 :memory                      20.88
 :minimized-lits              761
 :mk-bool-var                 4295
 :mk-clause                   2916
 :mk-clause-binary            16372
 :num-allocs                  67246415
 :num-checks                  1
 :propagations                89623
 :restarts                    2
 :rlimit-count                1380596
 :solve-eqs-elim-vars         355
 :solve-eqs-steps             2203
 :time                        0.54
 :total-time                  0.55)
